c2_10_7

VEHICLE
NUMBER   CAPACITY
250     700

CUSTOMER
CUST NO. XCOORD.  YCOORD.  DEMAND  READY TIME DUE DATE  SERVICE TIME

0   250    250     0     0    3914     0
94 148 225 40 105 1306 90
604 152 241 20 549 1197 90
252 155 198 30 108 332 90
183 152 196 10 122 462 90
586 140 220 30 633 1133 90
21 149 183 20 2911 3466 90
505 173 208 30 1942 1981 90
987 152 225 30 766 1382 90
629 140 180 20 2929 3249 90
421 140 206 30 409 566 90
955 138 196 30 1887 2259 90
382 137 227 20 115 291 90
405 151 214 10 402 781 90
554 147 199 30 228 548 90
431 136 217 30 678 1278 90
334 137 186 10 2840 3145 90
285 155 242 10 891 1041 90
315 157 192 20 2830 3715 90
474 146 245 20 464 1089 90
150 131 241 10 2739 3705 90
383 161 203 20 100 898 90
983 145 221 20 373 1202 90
108 132 218 10 122 1194 90
